(set-info :smt-lib-version 2.6)
(set-logic LRA)
(set-info :source |
   Monniaux, David; Quantifier Elimination by Lazy Model Enumeration, CAV 2010
|)
(set-info :category "random")
; ./Mjollnir_examples/B1/formula_012.m
(set-info :status unknown)
(assert
 (forall ((|v9:0| Real) )(exists ((|v8:1| Real) )(forall ((|v7:2| Real) )(exists ((|v6:3| Real) )(forall ((|v5:4| Real) )(exists ((|v4:5| Real) )(forall ((|v3:6| Real) )(exists ((|v2:7| Real) )(forall ((|v1:8| Real) )(exists ((|v0:9| Real) )(let ((?x260 (+ (+ (* (- 7) |v7:2|) (* (- 5) |v6:3|)) (* 4 |v4:5|))))
(let ((?x27 20))
(let ((?x252 (+ (+ (* (- 15) |v3:6|) (* (- 12) |v8:1|)) (* 17 |v2:7|))))
(let ((?x74 13))
(let ((?x246 (+ (+ (* 4 |v9:0|) (* 11 |v3:6|)) (* 18 |v4:5|))))
(let ((?x22 (- 1)))
(let ((?x236 (+ (+ (* (- 7) |v3:6|) (* (- 3) |v0:9|)) (* (- 19) |v0:9|))))
(let ((?x229 (+ (+ (* (- 2) |v1:8|) (* 12 |v3:6|)) (* 15 |v4:5|))))
(let ((?x19 (- 3)))
(let ((?x36 15))
(let ((?x198 (* ?x36 |v9:0|)))
(let (($x220 (<= (+ (+ (* 19 |v0:9|) (* 17 |v3:6|)) ?x198) ?x19)))
(let ((?x215 (+ (+ (* (- 14) |v5:4|) (* (- 8) |v0:9|)) (* ?x19 |v7:2|))))
(let (($x239 (and (or (<= ?x215 ?x19) $x220) (or (<= ?x229 14) (<= ?x236 ?x22)))))
(let (($x264 (and $x239 (or (or (<= ?x246 ?x74) (<= ?x252 ?x27)) (<= ?x260 2)))))
(let ((?x65 (- 12)))
(let ((?x207 (+ (+ (* 17 |v0:9|) (* 19 |v4:5|)) (* (- 15) |v0:9|))))
(let ((?x44 16))
(let (($x209 (and (<= (+ (+ ?x198 (* ?x19 |v2:7|)) (* ?x44 |v6:3|)) ?x44) (<= ?x207 ?x65))))
(let ((?x194 (+ (+ (* 19 |v8:1|) (* (- 15) |v1:8|)) (* ?x44 |v1:8|))))
(let ((?x188 (+ (+ (* (- 17) |v5:4|) (* (- 14) |v5:4|)) (* 6 |v3:6|))))
(let ((?x179 (+ (+ (* 10 |v6:3|) (* ?x44 |v0:9|)) (* 4 |v3:6|))))
(let ((?x105 17))
(let ((?x173 (* ?x105 |v3:6|)))
(let (($x175 (<= (+ (+ (* ?x44 |v4:5|) (* 3 |v8:1|)) ?x173) (- 13))))
(let ((?x167 (+ (+ (* 19 |v1:8|) (* ?x27 |v5:4|)) (* (- 4) |v0:9|))))
(let ((?x135 19))
(let ((?x160 (* ?x135 |v8:1|)))
(let (($x163 (<= (+ (+ (* 10 |v5:4|) (* (- 19) |v3:6|)) ?x160) 8)))
(let (($x211 (or (or (or $x163 (<= ?x167 ?x74)) (and $x175 (<= ?x179 ?x65))) (and (or (<= ?x188 0) (<= ?x194 (- 20))) $x209))))
(let ((?x148 (+ (+ (* (- 14) |v0:9|) (* 3 |v7:2|)) (* (- 19) |v7:2|))))
(let (($x139 (<= (+ (+ (* 11 |v7:2|) (* ?x22 |v8:1|)) (* ?x135 |v1:8|)) (- 13))))
(let ((?x128 (- 7)))
(let ((?x127 (+ (+ (* ?x105 |v0:9|) (* (- 15) |v7:2|)) (* 11 |v1:8|))))
(let ((?x97 (- 4)))
(let ((?x114 (+ (+ (* ?x105 |v4:5|) (* (- 6) |v1:8|)) (* (- 20) |v0:9|))))
(let ((?x102 (- 19)))
(let (($x103 (<= (+ (+ (* ?x22 |v5:4|) (* ?x97 |v3:6|)) (* (- 2) |v4:5|)) ?x102)))
(let ((?x31 (- 8)))
(let ((?x91 (* ?x44 |v0:9|)))
(let (($x93 (<= (+ (+ (* 9 |v5:4|) (* (- 18) |v8:1|)) ?x91) ?x31)))
(let (($x152 (or (or $x93 (and $x103 (<= ?x114 ?x97))) (and (<= ?x127 ?x128) (or $x139 (<= ?x148 ?x135))))))
(let ((?x80 (+ (+ (* (- 17) |v6:3|) (* ?x74 |v1:8|)) (* (- 2) |v8:1|))))
(let ((?x64 (+ (+ (* 6 |v0:9|) (* (- 11) |v3:6|)) (* 4 |v2:7|))))
(let (($x54 (<= (+ (+ (* ?x44 |v3:6|) (* ?x22 |v3:6|)) (* (- 16) |v7:2|)) (- 5))))
(let ((?x39 6))
(let ((?x21 (+ (+ (* (- 9) |v0:9|) (* 5 |v3:6|)) (* ?x19 |v8:1|))))
(let (($x41 (or (<= ?x21 ?x22) (<= (+ (+ (* ?x27 |v4:5|) (* ?x31 |v2:7|)) (* ?x36 |v1:8|)) ?x39))))
(and (or (and (and $x41 (and $x54 (<= ?x64 ?x65))) (<= ?x80 ?x65)) $x152) (and $x211 $x264)))))))))))))))))))))))))))))))))))))))))))))))))))
)
)
)
)
)
)
)
)
)
)
(check-sat)
(exit)

